rcpsp/heur_output_or_constraints/Log=2/heurj60.txt
encoding rcpsp/j60.sm/j6010_10.sm nv: 1062080 nc: 2148199 enctime: 14.69
encoding rcpsp/j60.sm/j6010_10.sm nv: 242287 nc: 488359 enctime: 2.80
c File: j6010_10.smnaiveor2.wcnf
c optimal
c final solution cost: 70
c CPU time: 3.192689
s OPTIMUM FOUND

c File: j6010_10.smor2.wcnf
c optimal
c final solution cost: 70
c CPU time: 0.556931
s OPTIMUM FOUND


rcpsp/heur_output_or_constraints/Log=2/heurj60.txt
encoding rcpsp/j60.sm/j6010_1.sm nv: 814212 nc: 1666953 enctime: 12.13
encoding rcpsp/j60.sm/j6010_1.sm nv: 196014 nc: 399561 enctime: 2.29
c File: j6010_1.smnaiveor2.wcnf
c optimal
c final solution cost: 69
c CPU time: 7.651376
s OPTIMUM FOUND

c File: j6010_1.smor2.wcnf
c optimal
c final solution cost: 69
c CPU time: 1.050077
s OPTIMUM FOUND


rcpsp/heur_output_or_constraints/Log=2/heurj60.txt
encoding rcpsp/j60.sm/j6010_2.sm nv: 1314048 nc: 2663449 enctime: 18.52
encoding rcpsp/j60.sm/j6010_2.sm nv: 215296 nc: 434273 enctime: 2.60
c File: j6010_2.smnaiveor2.wcnf
c timeout
c final solution cost: 49
c CPU time: 62.508109
s UNKNOWN

c File: j6010_2.smor2.wcnf
c timeout
c final solution cost: 50
c CPU time: 60.305360
s UNKNOWN


rcpsp/heur_output_or_constraints/Log=2/heurj60.txt
encoding rcpsp/j60.sm/j6010_3.sm nv: 1079346 nc: 2204929 enctime: 16.01
encoding rcpsp/j60.sm/j6010_3.sm nv: 219528 nc: 446377 enctime: 2.62
c File: j6010_3.smnaiveor2.wcnf
c timeout
c final solution cost: 62
c CPU time: 62.211523
s UNKNOWN

c File: j6010_3.smor2.wcnf
c timeout
c final solution cost: 61
c CPU time: 60.327308
s UNKNOWN


rcpsp/heur_output_or_constraints/Log=2/heurj60.txt
encoding rcpsp/j60.sm/j6010_4.sm nv: 877150 nc: 1796387 enctime: 13.08
encoding rcpsp/j60.sm/j6010_4.sm nv: 190800 nc: 388981 enctime: 2.25
c File: j6010_4.smnaiveor2.wcnf
c timeout
c final solution cost: 62
c CPU time: 61.807397
s UNKNOWN

c File: j6010_4.smor2.wcnf
c timeout
c final solution cost: 63
c CPU time: 60.290216
s UNKNOWN


rcpsp/heur_output_or_constraints/Log=2/heurj60.txt
encoding rcpsp/j60.sm/j6010_5.sm nv: 1132110 nc: 2327049 enctime: 17.49
encoding rcpsp/j60.sm/j6010_5.sm nv: 209650 nc: 428537 enctime: 2.53
c File: j6010_5.smnaiveor2.wcnf
c timeout
c final solution cost: 64
c CPU time: 62.471718
s UNKNOWN

c File: j6010_5.smor2.wcnf
c timeout
c final solution cost: 62
c CPU time: 60.354688
s UNKNOWN


rcpsp/heur_output_or_constraints/Log=2/heurj60.txt
encoding rcpsp/j60.sm/j6010_6.sm nv: 1042644 nc: 2113526 enctime: 17.25
encoding rcpsp/j60.sm/j6010_6.sm nv: 193680 nc: 390613 enctime: 1.97
c File: j6010_6.smnaiveor2.wcnf
c timeout
c final solution cost: 51
c CPU time: 62.099108
s UNKNOWN

c File: j6010_6.smor2.wcnf
c timeout
c final solution cost: 51
c CPU time: 60.326119
s UNKNOWN


rcpsp/heur_output_or_constraints/Log=2/heurj60.txt
encoding rcpsp/j60.sm/j6010_7.sm nv: 1115605 nc: 2269548 enctime: 17.38
encoding rcpsp/j60.sm/j6010_7.sm nv: 247555 nc: 501588 enctime: 3.33
c File: j6010_7.smnaiveor2.wcnf
c optimal
c final solution cost: 64
c CPU time: 21.885661
s OPTIMUM FOUND

c File: j6010_7.smor2.wcnf
c optimal
c final solution cost: 64
c CPU time: 3.381709
s OPTIMUM FOUND


rcpsp/heur_output_or_constraints/Log=2/heurj60.txt
encoding rcpsp/j60.sm/j6010_8.sm nv: 852112 nc: 1730831 enctime: 13.51
encoding rcpsp/j60.sm/j6010_8.sm nv: 182195 nc: 368531 enctime: 2.33
c File: j6010_8.smnaiveor2.wcnf
c timeout
c final solution cost: 54
c CPU time: 61.806501
s UNKNOWN

c File: j6010_8.smor2.wcnf
c timeout
c final solution cost: 54
c CPU time: 60.295824
s UNKNOWN


rcpsp/heur_output_or_constraints/Log=2/heurj60.txt
encoding rcpsp/j60.sm/j6010_9.sm nv: 1183623 nc: 2412684 enctime: 17.78
encoding rcpsp/j60.sm/j6010_9.sm nv: 243978 nc: 495204 enctime: 2.91
c File: j6010_9.smnaiveor2.wcnf
c timeout
c final solution cost: 63
c CPU time: 62.481801
s UNKNOWN

c File: j6010_9.smor2.wcnf
c timeout
c final solution cost: 64
c CPU time: 60.451903
s UNKNOWN


rcpsp/heur_output_or_constraints/Log=2/heurj60.txt
encoding rcpsp/j60.sm/j601_10.sm nv: 135255 nc: 345588 enctime: 4.35
encoding rcpsp/j60.sm/j601_10.sm nv: 25527 nc: 63060 enctime: 0.46
c File: j601_10.smnaiveor2.wcnf
c optimal
c final solution cost: 61
c CPU time: 1.454995
s OPTIMUM FOUND

c File: j601_10.smor2.wcnf
c optimal
c final solution cost: 61
c CPU time: 0.128096
s OPTIMUM FOUND


rcpsp/heur_output_or_constraints/Log=2/heurj60.txt
encoding rcpsp/j60.sm/j6011_10.sm nv: 1225224 nc: 2460986 enctime: 21.25
encoding rcpsp/j60.sm/j6011_10.sm nv: 182988 nc: 365772 enctime: 2.47
c File: j6011_10.smnaiveor2.wcnf
c optimal
c final solution cost: 44
c CPU time: 3.753705
s OPTIMUM FOUND

c File: j6011_10.smor2.wcnf
c optimal
c final solution cost: 44
c CPU time: 0.364491
s OPTIMUM FOUND


rcpsp/heur_output_or_constraints/Log=2/heurj60.txt
encoding rcpsp/j60.sm/j6011_1.sm nv: 1408179 nc: 2856926 enctime: 22.01
encoding rcpsp/j60.sm/j6011_1.sm nv: 237894 nc: 480366 enctime: 2.84
c File: j6011_1.smnaiveor2.wcnf
c optimal
c final solution cost: 52
c CPU time: 14.136656
s OPTIMUM FOUND

c File: j6011_1.smor2.wcnf
c optimal
c final solution cost: 52
c CPU time: 2.917457
s OPTIMUM FOUND


rcpsp/heur_output_or_constraints/Log=2/heurj60.txt
encoding rcpsp/j60.sm/j6011_2.sm nv: 1264172 nc: 2547240 enctime: 18.49
encoding rcpsp/j60.sm/j6011_2.sm nv: 219856 nc: 441052 enctime: 2.87
c File: j6011_2.smnaiveor2.wcnf
c optimal
c final solution cost: 52
c CPU time: 4.613409
s OPTIMUM FOUND

c File: j6011_2.smor2.wcnf
c optimal
c final solution cost: 52
c CPU time: 0.794367
s OPTIMUM FOUND


rcpsp/heur_output_or_constraints/Log=2/heurj60.txt
encoding rcpsp/j60.sm/j6011_3.sm nv: 1287885 nc: 2606806 enctime: 20.74
encoding rcpsp/j60.sm/j6011_3.sm nv: 261310 nc: 526981 enctime: 3.01
c File: j6011_3.smnaiveor2.wcnf
c optimal
c final solution cost: 65
c CPU time: 3.680815
s OPTIMUM FOUND

c File: j6011_3.smor2.wcnf
c optimal
c final solution cost: 65
c CPU time: 0.577271
s OPTIMUM FOUND


rcpsp/heur_output_or_constraints/Log=2/heurj60.txt
encoding rcpsp/j60.sm/j6011_4.sm nv: 1195920 nc: 2417159 enctime: 16.60
encoding rcpsp/j60.sm/j6011_4.sm nv: 224688 nc: 452183 enctime: 2.58
c File: j6011_4.smnaiveor2.wcnf
c optimal
c final solution cost: 58
c CPU time: 3.433541
s OPTIMUM FOUND

c File: j6011_4.smor2.wcnf
c optimal
c final solution cost: 58
c CPU time: 0.514562
s OPTIMUM FOUND


rcpsp/heur_output_or_constraints/Log=2/heurj60.txt
encoding rcpsp/j60.sm/j6011_5.sm nv: 1347104 nc: 2726038 enctime: 19.57
encoding rcpsp/j60.sm/j6011_5.sm nv: 233447 nc: 470206 enctime: 3.06
c File: j6011_5.smnaiveor2.wcnf
c optimal
c final solution cost: 48
c CPU time: 11.719233
s OPTIMUM FOUND

c File: j6011_5.smor2.wcnf
c optimal
c final solution cost: 48
c CPU time: 0.777068
s OPTIMUM FOUND


rcpsp/heur_output_or_constraints/Log=2/heurj60.txt
encoding rcpsp/j60.sm/j6011_6.sm nv: 1250644 nc: 2523795 enctime: 20.48
encoding rcpsp/j60.sm/j6011_6.sm nv: 244855 nc: 492192 enctime: 3.59
c File: j6011_6.smnaiveor2.wcnf
c optimal
c final solution cost: 59
c CPU time: 3.198061
s OPTIMUM FOUND

c File: j6011_6.smor2.wcnf
c optimal
c final solution cost: 59
c CPU time: 0.524584
s OPTIMUM FOUND


rcpsp/heur_output_or_constraints/Log=2/heurj60.txt
encoding rcpsp/j60.sm/j6011_7.sm nv: 1263780 nc: 2563975 enctime: 17.89
encoding rcpsp/j60.sm/j6011_7.sm nv: 232050 nc: 468725 enctime: 3.00
c File: j6011_7.smnaiveor2.wcnf
c optimal
c final solution cost: 62
c CPU time: 3.731148
s OPTIMUM FOUND

c File: j6011_7.smor2.wcnf
c optimal
c final solution cost: 62
c CPU time: 0.596368
s OPTIMUM FOUND


rcpsp/heur_output_or_constraints/Log=2/heurj60.txt
encoding rcpsp/j60.sm/j6011_8.sm nv: 1415537 nc: 2862885 enctime: 21.17
encoding rcpsp/j60.sm/j6011_8.sm nv: 232637 nc: 468285 enctime: 3.09
c File: j6011_8.smnaiveor2.wcnf
c optimal
c final solution cost: 55
c CPU time: 4.080451
s OPTIMUM FOUND

c File: j6011_8.smor2.wcnf
c optimal
c final solution cost: 55
c CPU time: 0.529824
s OPTIMUM FOUND


rcpsp/heur_output_or_constraints/Log=2/heurj60.txt
encoding rcpsp/j60.sm/j6011_9.sm nv: 1441476 nc: 2894672 enctime: 24.45
encoding rcpsp/j60.sm/j6011_9.sm nv: 231348 nc: 462720 enctime: 2.86
c File: j6011_9.smnaiveor2.wcnf
c optimal
c final solution cost: 47
c CPU time: 3.823291
s OPTIMUM FOUND

c File: j6011_9.smor2.wcnf
c optimal
c final solution cost: 47
c CPU time: 0.428775
s OPTIMUM FOUND


rcpsp/heur_output_or_constraints/Log=2/heurj60.txt
encoding rcpsp/j60.sm/j601_1.sm nv: 122100 nc: 305826 enctime: 3.45
encoding rcpsp/j60.sm/j601_1.sm nv: 24050 nc: 58316 enctime: 0.44
c File: j601_1.smnaiveor2.wcnf
c optimal
c final solution cost: 56
c CPU time: 9.158531
s OPTIMUM FOUND

c File: j601_1.smor2.wcnf
c optimal
c final solution cost: 56
c CPU time: 0.145674
s OPTIMUM FOUND


rcpsp/heur_output_or_constraints/Log=2/heurj60.txt
encoding rcpsp/j60.sm/j6012_10.sm nv: 1476615 nc: 2966886 enctime: 22.70
encoding rcpsp/j60.sm/j6012_10.sm nv: 292740 nc: 586211 enctime: 3.37
c File: j6012_10.smnaiveor2.wcnf
c optimal
c final solution cost: 67
c CPU time: 3.373281
s OPTIMUM FOUND

c File: j6012_10.smor2.wcnf
c optimal
c final solution cost: 67
c CPU time: 0.601815
s OPTIMUM FOUND


rcpsp/heur_output_or_constraints/Log=2/heurj60.txt
encoding rcpsp/j60.sm/j6012_1.sm nv: 2064376 nc: 4102584 enctime: 32.74
encoding rcpsp/j60.sm/j6012_1.sm nv: 267374 nc: 529388 enctime: 3.72
c File: j6012_1.smnaiveor2.wcnf
c optimal
c final solution cost: 42
c CPU time: 4.782152
s OPTIMUM FOUND

c File: j6012_1.smor2.wcnf
c optimal
c final solution cost: 42
c CPU time: 0.480292
s OPTIMUM FOUND


rcpsp/heur_output_or_constraints/Log=2/heurj60.txt
encoding rcpsp/j60.sm/j6012_2.sm nv: 1398240 nc: 2787175 enctime: 20.96
encoding rcpsp/j60.sm/j6012_2.sm nv: 291300 nc: 579223 enctime: 4.05
c File: j6012_2.smnaiveor2.wcnf
c optimal
c final solution cost: 58
c CPU time: 3.960643
s OPTIMUM FOUND

c File: j6012_2.smor2.wcnf
c optimal
c final solution cost: 58
c CPU time: 0.735109
s OPTIMUM FOUND


rcpsp/heur_output_or_constraints/Log=2/heurj60.txt
encoding rcpsp/j60.sm/j6012_3.sm nv: 1490222 nc: 3002170 enctime: 23.58
encoding rcpsp/j60.sm/j6012_3.sm nv: 275648 nc: 553282 enctime: 3.58
c File: j6012_3.smnaiveor2.wcnf
c optimal
c final solution cost: 62
c CPU time: 3.704425
s OPTIMUM FOUND

c File: j6012_3.smor2.wcnf
c optimal
c final solution cost: 62
c CPU time: 0.641421
s OPTIMUM FOUND


rcpsp/heur_output_or_constraints/Log=2/heurj60.txt
encoding rcpsp/j60.sm/j6012_4.sm nv: 1878268 nc: 3754063 enctime: 27.81
encoding rcpsp/j60.sm/j6012_4.sm nv: 306656 nc: 610839 enctime: 4.52
c File: j6012_4.smnaiveor2.wcnf
c optimal
c final solution cost: 55
c CPU time: 5.701974
s OPTIMUM FOUND

c File: j6012_4.smor2.wcnf
c optimal
c final solution cost: 55
c CPU time: 0.553799
s OPTIMUM FOUND


rcpsp/heur_output_or_constraints/Log=2/heurj60.txt
encoding rcpsp/j60.sm/j6012_5.sm nv: 1525856 nc: 3055640 enctime: 22.86
encoding rcpsp/j60.sm/j6012_5.sm nv: 265164 nc: 529107 enctime: 3.53
c File: j6012_5.smnaiveor2.wcnf
c optimal
c final solution cost: 50
c CPU time: 3.704650
s OPTIMUM FOUND

c File: j6012_5.smor2.wcnf
c optimal
c final solution cost: 50
c CPU time: 0.568376
s OPTIMUM FOUND


rcpsp/heur_output_or_constraints/Log=2/heurj60.txt
encoding rcpsp/j60.sm/j6012_6.sm nv: 1876380 nc: 3751067 enctime: 30.39
encoding rcpsp/j60.sm/j6012_6.sm nv: 284300 nc: 566347 enctime: 2.88
c File: j6012_6.smnaiveor2.wcnf
c optimal
c final solution cost: 49
c CPU time: 4.336015
s OPTIMUM FOUND

c File: j6012_6.smor2.wcnf
c optimal
c final solution cost: 49
c CPU time: 0.529020
s OPTIMUM FOUND


rcpsp/heur_output_or_constraints/Log=2/heurj60.txt
encoding rcpsp/j60.sm/j6012_7.sm nv: 1834700 nc: 3676640 enctime: 27.25
encoding rcpsp/j60.sm/j6012_7.sm nv: 262100 nc: 523040 enctime: 3.52
c File: j6012_7.smnaiveor2.wcnf
c optimal
c final solution cost: 49
c CPU time: 4.265592
s OPTIMUM FOUND

c File: j6012_7.smor2.wcnf
c optimal
c final solution cost: 49
c CPU time: 0.464633
s OPTIMUM FOUND


rcpsp/heur_output_or_constraints/Log=2/heurj60.txt
encoding rcpsp/j60.sm/j6012_8.sm nv: 1486518 nc: 2967734 enctime: 25.09
encoding rcpsp/j60.sm/j6012_8.sm nv: 240394 nc: 478280 enctime: 3.14
c File: j6012_8.smnaiveor2.wcnf
c optimal
c final solution cost: 48
c CPU time: 3.617953
s OPTIMUM FOUND

c File: j6012_8.smor2.wcnf
c optimal
c final solution cost: 48
c CPU time: 0.450190
s OPTIMUM FOUND


rcpsp/heur_output_or_constraints/Log=2/heurj60.txt
encoding rcpsp/j60.sm/j6012_9.sm nv: 1713260 nc: 3431336 enctime: 25.88
encoding rcpsp/j60.sm/j6012_9.sm nv: 267067 nc: 532923 enctime: 2.81
c File: j6012_9.smnaiveor2.wcnf
c optimal
c final solution cost: 52
c CPU time: 4.765860
s OPTIMUM FOUND

c File: j6012_9.smor2.wcnf
c optimal
c final solution cost: 52
c CPU time: 0.598697
s OPTIMUM FOUND


rcpsp/heur_output_or_constraints/Log=2/heurj60.txt
encoding rcpsp/j60.sm/j601_2.sm nv: 135240 nc: 340107 enctime: 4.48
encoding rcpsp/j60.sm/j601_2.sm nv: 27440 nc: 67032 enctime: 0.56
c File: j601_2.smnaiveor2.wcnf
c optimal
c final solution cost: 64
c CPU time: 2.093097
s OPTIMUM FOUND

c File: j601_2.smor2.wcnf
c optimal
c final solution cost: 64
c CPU time: 0.194812
s OPTIMUM FOUND


rcpsp/heur_output_or_constraints/Log=2/heurj60.txt
encoding rcpsp/j60.sm/j6013_10.sm nv: 994000 nc: 2046750 enctime: 15.58
encoding rcpsp/j60.sm/j6013_10.sm nv: 372400 nc: 765144 enctime: 4.97
c File: j6013_10.smnaiveor2.wcnf
c timeout
c final solution cost: 123
c CPU time: 62.207332
s UNKNOWN

c File: j6013_10.smor2.wcnf
c timeout
c CPU time: 60.585883
s UNKNOWN


rcpsp/heur_output_or_constraints/Log=2/heurj60.txt
encoding rcpsp/j60.sm/j6013_1.sm nv: 969804 nc: 1992028 enctime: 15.08
encoding rcpsp/j60.sm/j6013_1.sm nv: 361188 nc: 740342 enctime: 4.02
c File: j6013_1.smnaiveor2.wcnf
c timeout
c final solution cost: 120
c CPU time: 62.134694
s UNKNOWN

c File: j6013_1.smor2.wcnf
c timeout
c final solution cost: 122
c CPU time: 60.697448
s UNKNOWN


rcpsp/heur_output_or_constraints/Log=2/heurj60.txt
encoding rcpsp/j60.sm/j6013_2.sm nv: 908952 nc: 1855406 enctime: 14.25
encoding rcpsp/j60.sm/j6013_2.sm nv: 345576 nc: 704016 enctime: 4.51
c File: j6013_2.smnaiveor2.wcnf
c timeout
c final solution cost: 116
c CPU time: 61.960334
s UNKNOWN

c File: j6013_2.smor2.wcnf
c timeout
c final solution cost: 112
c CPU time: 60.661635
s UNKNOWN


rcpsp/heur_output_or_constraints/Log=2/heurj60.txt
encoding rcpsp/j60.sm/j6013_3.sm nv: 1071364 nc: 2186567 enctime: 16.66
encoding rcpsp/j60.sm/j6013_3.sm nv: 322700 nc: 656991 enctime: 4.34
c File: j6013_3.smnaiveor2.wcnf
c timeout
c final solution cost: 94
c CPU time: 62.379779
s UNKNOWN

c File: j6013_3.smor2.wcnf
c timeout
c final solution cost: 93
c CPU time: 60.644871
s UNKNOWN


rcpsp/heur_output_or_constraints/Log=2/heurj60.txt
encoding rcpsp/j60.sm/j6013_4.sm nv: 1181192 nc: 2420365 enctime: 19.89
encoding rcpsp/j60.sm/j6013_4.sm nv: 366464 nc: 749077 enctime: 4.41
c File: j6013_4.smnaiveor2.wcnf
c timeout
c final solution cost: 109
c CPU time: 62.538811
s UNKNOWN

c File: j6013_4.smor2.wcnf
c timeout
c final solution cost: 107
c CPU time: 60.653019
s UNKNOWN


rcpsp/heur_output_or_constraints/Log=2/heurj60.txt
encoding rcpsp/j60.sm/j6013_5.sm nv: 992007 nc: 2028442 enctime: 17.68
encoding rcpsp/j60.sm/j6013_5.sm nv: 326673 nc: 666472 enctime: 3.79
c File: j6013_5.smnaiveor2.wcnf
c timeout
c final solution cost: 101
c CPU time: 62.086064
s UNKNOWN

c File: j6013_5.smor2.wcnf
c timeout
c CPU time: 60.541191
s UNKNOWN


rcpsp/heur_output_or_constraints/Log=2/heurj60.txt
encoding rcpsp/j60.sm/j6013_6.sm nv: 991250 nc: 2024715 enctime: 16.59
encoding rcpsp/j60.sm/j6013_6.sm nv: 311100 nc: 633864 enctime: 3.79
c File: j6013_6.smnaiveor2.wcnf
c timeout
c final solution cost: 96
c CPU time: 62.144257
s UNKNOWN

c File: j6013_6.smor2.wcnf
c timeout
c CPU time: 60.530339
s UNKNOWN


